NAME : expansion
TYPE : TSP
DIMENSION : 50
EDGE_WEIGHT_TYPE : EUC_2D
NODE_COORD_SECTION
1 711710 525179
2 622009 513263
3 951635 535295
4 892399 551324
5 917155 318418
6 363765 19403
7 717438 723942
8 744494 531198
9 666655 414485
10 543535 393255
11 896001 436968
12 772982 277108
13 683391 399716
14 807211 404913
15 605722 380342
16 896006 423916
17 715385 238101
18 964052 185961
19 590939 511749
20 906212 559086
21 674408 241193
22 813250 350796
23 792916 159720
24 673307 847833
25 475123 200443
26 801626 322861
27 957091 288663
28 766137 875774
29 697557 417399
30 836310 409825
31 757549 604534
32 735208 506260
33 788007 390160
34 915037 532070
35 766522 455628
36 966399 510267
37 730752 781601
38 645454 473013
39 362621 434530
40 634815 198470
41 660708 619853
42 711737 885935
43 732683 537874
44 12247 141598
45 804395 588814
46 694888 821216
47 413279 865835
48 763165 745311
49 547937 596260
50 897253 627818
EOF
